NAME : XML100_2375_03
DIMENSION : 101
NB_CLUSTERS : 17
CLUSTERING_ALG : DBSCAN
CLUSTERING_PARAMS : eps(56), minSamples(3)
CLUSTERS
1 0
2 1 3 10 14 16 17 23 30 36 39 41 45 52 58 62 63 68 79 92 96
3 4 12 20 28 31 34 35 40 46 53 71 75 77 85 87 91 94
4 6 15 24 29 32 42 44 55 57 61 65 78 81 83 84 95
5 8 49 56 74 97
6 2 25 50 99
7 5 7 18 21 64 88 98 100
8 26 70
9 22 33 37 66 72
10 13 80 90
11 11 19 89 93
12 67 69 76
13 43 86
14 27 47 59
15 38 48 60
16 9 51 54
17 73 82
EOF